T = 10;
M = 3;
R = 1;

min_makespan = 8;
max_makespan = 1024;

test_duration = [2,4,3,4,3,2,1,2,3,5];
test_machines = [
    {1,2,3},{1,2,3},
    {1,2,3},{1,2,3},
    {1,2,3},{1,2,3},
    {1},{2},{3},
    {1,3}
];

test_resources = [
    { },{1},{1},{1},{ },
    { },{ },{ },{ },{ }
];
